Maximize
  0 x0 + 0 x1 - 11 x2 + 27 x3 + 0 x4 + 0 x5 + 0 x6 - 43 x7 + 0 x8 + 23 x9
   + 0 x10 + 22 x11 + 0 x12 - 41 x13 + 0 x14 + 13 x15 + 0 x16 + 0 x17
   + 0 x18 + 0 x19 + 0 x20 + 27 x21 - 7 x22 + 6 x23 - 6 x24 + 0 x25 + 0 x26
   + 0 x27 + 0 x28 + 0 x29 + 10 x30 + 0 x31 + 0 x32 + 0 x33 - 36 x34
   + 0 x35 + 0 x36 + 0 x37 + 17 x38 + 0 x39 + 17 x40 + 45 x41 + 0 x42
   + 0 x43 - 37 x44 - 33 x45 + 0 x46 + 0 x47 + 0 x48 + 0 x49 + 0 x50
   + 0 x51 - 17 x52 + 0 x53 + 46 x54 + 0 x55 - x56 + 0 x57 + 48 x58
   - 49 x59 + 0 x60 - 27 x61 + 0 x62 - 33 x63 + 47 x64 + 0 x65 + 0 x66
   - 42 x67 + 5 x68 + 0 x69 + 0 x70 + 0 x71 + 0 x72 - 32 x73 + 0 x74
   + 25 x75 + 0 x76 - 41 x77 - 37 x78 + 0 x79 + 41 x80 + 0 x81 + 6 x82
   + 0 x83 + 0 x84 + 0 x85 + 0 x86 - 45 x87 + 0 x88 + 21 x89 + [ 2 x0 ^2
   + 46 x0 * x2 - 40 x0 * x4 + 84 x0 * x5 + 28 x0 * x6 - 98 x0 * x8
   - 12 x0 * x9 + 2 x0 * x10 + 92 x0 * x13 - 32 x0 * x15 - 82 x0 * x17
   + 38 x0 * x19 + 70 x0 * x20 + 30 x0 * x24 + 14 x0 * x26 + 46 x0 * x27
   + 38 x0 * x28 - 98 x0 * x29 - 82 x0 * x32 + 2 x0 * x36 + 6 x0 * x40
   - 24 x0 * x41 + 2 x0 * x43 - 16 x0 * x44 + 86 x0 * x45 + 46 x0 * x50
   + 90 x0 * x56 + 36 x0 * x58 - 70 x0 * x61 - 20 x0 * x62 + 92 x0 * x64
   - 82 x0 * x65 - 54 x0 * x67 + 42 x0 * x68 - 40 x0 * x73 - 72 x0 * x74
   + 10 x0 * x76 - 34 x0 * x77 - 12 x0 * x80 + 20 x0 * x81 - 66 x0 * x84
   - 94 x0 * x87 + 38 x0 * x88 - 23 x1 ^2 - 60 x1 * x2 + 62 x1 * x5
   - 78 x1 * x6 - 6 x1 * x12 + 76 x1 * x14 + 36 x1 * x15 + 16 x1 * x19
   - 18 x1 * x20 + 94 x1 * x22 - 96 x1 * x23 + 24 x1 * x25 + 34 x1 * x31
   + 44 x1 * x34 - 16 x1 * x35 - 32 x1 * x37 + 72 x1 * x39 - 72 x1 * x40
   - 10 x1 * x41 - 58 x1 * x42 - 2 x1 * x43 + 36 x1 * x44 + 64 x1 * x49
   + 64 x1 * x50 + 60 x1 * x52 - 90 x1 * x55 + 26 x1 * x57 - 64 x1 * x60
   - 6 x1 * x61 - 88 x1 * x62 + 50 x1 * x64 - 14 x1 * x65 - 60 x1 * x66
   - 66 x1 * x70 - 32 x1 * x72 + 46 x1 * x73 + 14 x1 * x77 + 6 x1 * x80
   - 30 x1 * x83 - 8 x1 * x84 - 78 x1 * x85 - 54 x1 * x86 + 25 x2 ^2
   - 62 x2 * x6 + 68 x2 * x8 - 36 x2 * x10 + 32 x2 * x14 - 86 x2 * x15
   + 56 x2 * x17 - 16 x2 * x18 - 90 x2 * x19 + 96 x2 * x23 + 2 x2 * x24
   + 44 x2 * x25 - 96 x2 * x26 - 28 x2 * x27 + 14 x2 * x28 + 2 x2 * x30
   - 24 x2 * x31 - 18 x2 * x37 - 52 x2 * x38 + 10 x2 * x42 + 72 x2 * x43
   - 4 x2 * x44 + 52 x2 * x45 + 58 x2 * x51 - 50 x2 * x53 - 6 x2 * x55
   + 18 x2 * x56 + 28 x2 * x57 + 4 x2 * x58 - 38 x2 * x61 - 42 x2 * x63
   + 70 x2 * x64 - 16 x2 * x66 - 66 x2 * x67 + 68 x2 * x69 - 32 x2 * x70
   + 84 x2 * x72 + 16 x2 * x73 - 4 x2 * x75 - 70 x2 * x77 + 64 x2 * x80
   - 22 x2 * x84 - 66 x2 * x85 - 38 x2 * x87 + 68 x2 * x88 + 10 x2 * x89
   + 66 x3 * x6 - 62 x3 * x10 + 36 x3 * x12 - 50 x3 * x14 - 2 x3 * x15
   + 86 x3 * x16 + 66 x3 * x17 - 90 x3 * x18 - 82 x3 * x19 - 48 x3 * x20
   - 26 x3 * x22 + 78 x3 * x24 + 38 x3 * x25 + 40 x3 * x27 + 44 x3 * x31
   - 46 x3 * x32 + 60 x3 * x36 + 6 x3 * x39 + 80 x3 * x47 - 56 x3 * x48
   + 8 x3 * x55 + 40 x3 * x57 + 86 x3 * x58 - 56 x3 * x60 + 24 x3 * x63
   - 14 x3 * x64 - 98 x3 * x65 - 70 x3 * x69 - 82 x3 * x73 - 6 x3 * x74
   - 96 x3 * x79 - 20 x3 * x80 - 94 x3 * x82 + 54 x3 * x83 - 4 x3 * x84
   + 78 x3 * x86 + 12 x4 ^2 - 98 x4 * x8 - 2 x4 * x9 - 56 x4 * x11
   - 92 x4 * x12 + 78 x4 * x13 - 48 x4 * x15 - 92 x4 * x17 - 12 x4 * x26
   + 18 x4 * x27 - 50 x4 * x34 - 72 x4 * x35 + 78 x4 * x36 - 30 x4 * x39
   + 94 x4 * x40 - 86 x4 * x42 + 36 x4 * x47 - 8 x4 * x48 + 60 x4 * x49
   - 10 x4 * x52 + 64 x4 * x54 - 4 x4 * x55 + 20 x4 * x56 + 6 x4 * x57
   - 74 x4 * x58 - 36 x4 * x61 + 10 x4 * x64 - 74 x4 * x67 - 86 x4 * x68
   - 34 x4 * x69 - 54 x4 * x71 - 62 x4 * x72 + 36 x4 * x73 - 36 x4 * x74
   + 2 x4 * x81 + 90 x4 * x83 + 72 x4 * x85 - 80 x4 * x87 + 80 x4 * x89
   + 11 x5 ^2 - 54 x5 * x7 - 16 x5 * x9 + 8 x5 * x10 - 44 x5 * x15
   - 46 x5 * x16 - 14 x5 * x18 - 98 x5 * x19 + 34 x5 * x22 - 4 x5 * x28
   - 94 x5 * x31 + 68 x5 * x36 - 86 x5 * x37 - 86 x5 * x38 - 10 x5 * x39
   + 2 x5 * x40 - 56 x5 * x45 + 82 x5 * x46 + 18 x5 * x48 + 16 x5 * x50
   + 50 x5 * x52 - 40 x5 * x53 + 56 x5 * x54 - 86 x5 * x63 - 48 x5 * x65
   + 78 x5 * x66 - 94 x5 * x67 + 34 x5 * x68 - 12 x5 * x72 + 14 x5 * x73
   - 24 x5 * x74 - 40 x5 * x79 + 94 x5 * x81 + 36 x5 * x88 - 18 x5 * x89
   - 27 x6 ^2 - 2 x6 * x8 - 50 x6 * x9 + 22 x6 * x10 + 96 x6 * x11
   - 90 x6 * x12 + 26 x6 * x17 - 62 x6 * x20 - 18 x6 * x23 - 48 x6 * x26
   + 70 x6 * x27 - 6 x6 * x29 - 50 x6 * x30 + 50 x6 * x31 - 26 x6 * x35
   + 2 x6 * x36 - 96 x6 * x38 + 34 x6 * x40 - 14 x6 * x42 - 84 x6 * x43
   - 46 x6 * x44 - 16 x6 * x45 + 6 x6 * x47 - 32 x6 * x48 + 40 x6 * x49
   - 38 x6 * x50 + 24 x6 * x55 + 74 x6 * x58 - 32 x6 * x60 - 38 x6 * x65
   - 58 x6 * x67 - 4 x6 * x70 - 44 x6 * x71 + 8 x6 * x75 + 66 x6 * x76
   - 2 x6 * x77 + 70 x6 * x80 - 24 x6 * x81 + 86 x6 * x82 + 38 x6 * x89
   - 82 x7 * x8 + 42 x7 * x9 - 28 x7 * x10 + 6 x7 * x15 + 52 x7 * x16
   + 50 x7 * x17 + 38 x7 * x18 + 30 x7 * x20 + 34 x7 * x23 + 76 x7 * x24
   - 66 x7 * x28 - 98 x7 * x29 + 60 x7 * x30 + 50 x7 * x32 + 88 x7 * x33
   - 74 x7 * x35 + 24 x7 * x36 - 40 x7 * x38 - 48 x7 * x41 + 38 x7 * x46
   + 6 x7 * x47 + 60 x7 * x48 + 4 x7 * x49 - 8 x7 * x52 - 30 x7 * x53
   + 34 x7 * x54 + 48 x7 * x55 + 18 x7 * x59 - 90 x7 * x64 + 4 x7 * x66
   + 2 x7 * x69 - 38 x7 * x70 + 94 x7 * x73 - 60 x7 * x75 - 78 x7 * x76
   - 48 x7 * x77 - 78 x7 * x78 - 92 x7 * x79 - 36 x7 * x80 - 56 x7 * x81
   + 58 x7 * x84 - 62 x7 * x85 - 4 x7 * x87 - 19 x8 ^2 + 64 x8 * x10
   - 20 x8 * x12 + 34 x8 * x14 + 58 x8 * x16 + 24 x8 * x19 - 80 x8 * x20
   - 98 x8 * x22 + 48 x8 * x23 + 80 x8 * x24 - 4 x8 * x25 + 4 x8 * x27
   + 32 x8 * x29 - 50 x8 * x30 + 58 x8 * x33 - 24 x8 * x35 + 56 x8 * x36
   + 70 x8 * x37 + 10 x8 * x38 + 80 x8 * x39 + 78 x8 * x41 - 34 x8 * x43
   + 8 x8 * x44 - 76 x8 * x45 - 48 x8 * x46 + 14 x8 * x47 + 56 x8 * x49
   - 48 x8 * x50 - 42 x8 * x51 + 18 x8 * x56 + 10 x8 * x59 - 92 x8 * x60
   - 40 x8 * x61 + 58 x8 * x63 + 4 x8 * x66 - 80 x8 * x71 - 86 x8 * x78
   + 76 x8 * x79 - 78 x8 * x85 + 3 x9 ^2 + 44 x9 * x11 + 20 x9 * x12
   - 20 x9 * x19 - 46 x9 * x20 + 48 x9 * x21 - 18 x9 * x22 - 72 x9 * x24
   - 36 x9 * x25 - 84 x9 * x26 + 64 x9 * x30 - 6 x9 * x31 - 62 x9 * x34
   + 58 x9 * x35 + 34 x9 * x36 - 14 x9 * x38 + 84 x9 * x39 - 8 x9 * x40
   + 70 x9 * x43 - 72 x9 * x47 + 44 x9 * x49 + 2 x9 * x50 + 50 x9 * x52
   + 18 x9 * x54 - 14 x9 * x55 - 90 x9 * x56 - 82 x9 * x57 - 38 x9 * x58
   - 6 x9 * x60 + 6 x9 * x61 + 26 x9 * x62 - 14 x9 * x63 - 76 x9 * x66
   - 30 x9 * x67 + 96 x9 * x68 - 2 x9 * x69 + 40 x9 * x71 - 46 x9 * x73
   - 52 x9 * x74 + 76 x9 * x80 + 4 x9 * x83 - 20 x9 * x85 + 78 x9 * x88
   - 24 x9 * x89 + 18 x10 * x12 + 24 x10 * x14 + 28 x10 * x16
   + 10 x10 * x18 - 70 x10 * x21 + 92 x10 * x25 - 50 x10 * x27
   + 18 x10 * x28 - 44 x10 * x30 + 76 x10 * x32 - 78 x10 * x38
   - 92 x10 * x39 - 84 x10 * x40 - 8 x10 * x42 - 44 x10 * x44
   - 74 x10 * x48 - 64 x10 * x49 - 30 x10 * x51 - 78 x10 * x52
   - 62 x10 * x55 - 58 x10 * x62 + 66 x10 * x66 - 20 x10 * x67
   + 42 x10 * x68 + 70 x10 * x69 - 82 x10 * x73 + 56 x10 * x75
   - 88 x10 * x76 - 74 x10 * x81 + 74 x10 * x82 - 96 x10 * x84
   - 10 x10 * x87 + 52 x11 * x12 + 64 x11 * x14 + 16 x11 * x15
   + 74 x11 * x20 - 16 x11 * x21 - 10 x11 * x23 - 94 x11 * x26
   - 88 x11 * x30 - 54 x11 * x35 + 54 x11 * x36 + 62 x11 * x38
   + 86 x11 * x39 + 96 x11 * x40 - 74 x11 * x41 + 48 x11 * x42
   + 50 x11 * x43 - 6 x11 * x49 + 38 x11 * x52 + 70 x11 * x54
   - 92 x11 * x57 + 66 x11 * x58 + 18 x11 * x59 - 60 x11 * x61
   + 16 x11 * x63 - 68 x11 * x66 + 10 x11 * x67 + 16 x11 * x68
   + 76 x11 * x70 - 98 x11 * x74 + 68 x11 * x75 + 94 x11 * x77
   - 90 x11 * x82 + 16 x11 * x83 - 13 x12 ^2 + 58 x12 * x13 - 74 x12 * x14
   - 10 x12 * x15 + 72 x12 * x16 - 64 x12 * x17 - 80 x12 * x18
   + 96 x12 * x19 + 92 x12 * x20 - 88 x12 * x21 - 18 x12 * x25
   + 68 x12 * x29 + 20 x12 * x33 + 32 x12 * x37 + 66 x12 * x38
   - 42 x12 * x40 + 40 x12 * x42 + 58 x12 * x43 - 8 x12 * x45
   - 98 x12 * x46 + 88 x12 * x50 - 20 x12 * x51 + 4 x12 * x54
   - 50 x12 * x55 + 46 x12 * x56 - 90 x12 * x58 + 60 x12 * x59
   - 10 x12 * x63 + 46 x12 * x66 + 74 x12 * x68 + 82 x12 * x69
   + 96 x12 * x75 + 14 x12 * x77 - 10 x12 * x79 - 40 x12 * x80
   - 90 x12 * x81 - 30 x12 * x83 - 86 x12 * x86 - 40 x12 * x88 + 11 x13 ^2
   + 22 x13 * x18 - 78 x13 * x19 + 24 x13 * x27 - 10 x13 * x28
   + 52 x13 * x29 - 32 x13 * x30 - 80 x13 * x32 - 34 x13 * x33
   + 98 x13 * x34 - 18 x13 * x36 - 60 x13 * x38 + 28 x13 * x40
   - 16 x13 * x42 + 64 x13 * x43 + 90 x13 * x44 - 70 x13 * x45
   + 8 x13 * x46 + 44 x13 * x49 + 22 x13 * x51 + 24 x13 * x52
   + 96 x13 * x56 + 96 x13 * x57 - 28 x13 * x58 - 42 x13 * x63
   - 56 x13 * x64 - 74 x13 * x65 - 82 x13 * x73 - 78 x13 * x74
   + 10 x13 * x75 - 8 x13 * x76 + 70 x13 * x79 - 16 x13 * x80
   + 52 x13 * x81 - 64 x13 * x84 + 11 x14 ^2 + 28 x14 * x16 - 36 x14 * x17
   - 46 x14 * x19 + 88 x14 * x21 + 42 x14 * x22 + 42 x14 * x23
   - 58 x14 * x24 + 70 x14 * x25 - 60 x14 * x28 - 94 x14 * x29
   - 74 x14 * x31 - 24 x14 * x32 - 34 x14 * x33 - 82 x14 * x34
   + 68 x14 * x35 - 30 x14 * x39 + 76 x14 * x40 - 42 x14 * x41
   + 80 x14 * x43 - 12 x14 * x45 - 32 x14 * x46 - 96 x14 * x52
   - 70 x14 * x53 - 4 x14 * x56 + 88 x14 * x59 - 54 x14 * x62
   + 92 x14 * x63 - 38 x14 * x64 - 82 x14 * x66 + 10 x14 * x69
   + 8 x14 * x70 - 12 x14 * x71 - 68 x14 * x72 - 8 x14 * x73 - 42 x14 * x76
   - 26 x14 * x81 - 14 x14 * x87 - 10 x14 * x89 - 40 x15 ^2 + 46 x15 * x18
   - 80 x15 * x19 - 24 x15 * x20 - 52 x15 * x21 - 66 x15 * x22
   + 18 x15 * x31 + 28 x15 * x32 + 46 x15 * x33 + 50 x15 * x34
   + 42 x15 * x35 + 60 x15 * x39 - 42 x15 * x40 - 54 x15 * x42
   + 60 x15 * x44 + 88 x15 * x49 + 44 x15 * x50 - 80 x15 * x51
   - 46 x15 * x52 - 2 x15 * x55 - 30 x15 * x59 + 4 x15 * x60 - 54 x15 * x62
   - 24 x15 * x68 - 10 x15 * x71 + 14 x15 * x72 + 90 x15 * x73
   - 50 x15 * x75 - 76 x15 * x77 + 72 x15 * x78 - 82 x15 * x83
   - 12 x15 * x85 + 22 x15 * x86 + 80 x15 * x88 + 58 x15 * x89 - 6 x16 ^2
   + 50 x16 * x20 + 82 x16 * x25 + 74 x16 * x30 - 4 x16 * x32
   - 40 x16 * x33 - 4 x16 * x35 - 62 x16 * x37 + 92 x16 * x39
   - 38 x16 * x42 - 18 x16 * x44 + 96 x16 * x46 - 94 x16 * x47
   - 10 x16 * x48 - 10 x16 * x49 + 72 x16 * x50 + 56 x16 * x52
   + 54 x16 * x55 - 88 x16 * x57 + 8 x16 * x60 - 10 x16 * x61 - 6 x16 * x66
   - 80 x16 * x67 - 48 x16 * x73 - 40 x16 * x74 - 18 x16 * x75
   + 96 x16 * x76 - 72 x16 * x77 + 58 x16 * x78 - 56 x16 * x79
   - 30 x16 * x80 - 80 x16 * x81 - 94 x16 * x83 - 84 x16 * x87
   - 6 x16 * x88 - 52 x17 * x18 + 24 x17 * x19 - 30 x17 * x22 - 2 x17 * x24
   - 52 x17 * x29 - 14 x17 * x31 - 6 x17 * x34 - 82 x17 * x36
   - 78 x17 * x39 - 32 x17 * x41 + 46 x17 * x45 - 28 x17 * x49
   + 22 x17 * x52 + 28 x17 * x56 + 56 x17 * x58 + 12 x17 * x59
   + 72 x17 * x60 - 34 x17 * x61 + 68 x17 * x65 - 16 x17 * x67
   + 68 x17 * x68 - 32 x17 * x69 + 62 x17 * x71 - 86 x17 * x76
   + 40 x17 * x77 - 32 x17 * x78 - 2 x17 * x80 + 78 x17 * x82
   - 24 x17 * x84 + 18 x17 * x85 + 86 x17 * x86 - 42 x17 * x88 + 8 x18 ^2
   + 12 x18 * x19 + 46 x18 * x20 + 94 x18 * x26 + 94 x18 * x29
   - 94 x18 * x30 + 30 x18 * x32 - 44 x18 * x34 - 58 x18 * x37
   + 74 x18 * x38 - 58 x18 * x41 - 18 x18 * x49 - 92 x18 * x51
   + 26 x18 * x52 + 16 x18 * x54 + 86 x18 * x57 + 8 x18 * x59
   - 96 x18 * x62 - 24 x18 * x63 + 46 x18 * x64 - 32 x18 * x65
   + 72 x18 * x67 + 42 x18 * x69 + 10 x18 * x71 + 78 x18 * x72
   + 2 x18 * x73 - 18 x18 * x74 + 42 x18 * x78 + 52 x18 * x80
   + 56 x18 * x82 - 82 x18 * x83 + 22 x18 * x84 - 50 x18 * x85
   + 26 x18 * x86 - 6 x18 * x89 + 3 x19 ^2 + 52 x19 * x20 + 64 x19 * x22
   + 60 x19 * x23 + 54 x19 * x24 - 46 x19 * x25 + 52 x19 * x26
   + 28 x19 * x30 - 70 x19 * x33 + 42 x19 * x39 + 2 x19 * x40
   - 26 x19 * x43 + 88 x19 * x50 - 22 x19 * x55 - 24 x19 * x56
   + 22 x19 * x58 - 28 x19 * x59 - 80 x19 * x61 + 70 x19 * x62
   - 72 x19 * x65 - 4 x19 * x66 + 6 x19 * x68 - 40 x19 * x78 - 30 x19 * x79
   + 20 x19 * x81 + 26 x19 * x82 - 80 x19 * x85 - 28 x19 * x87 - 8 x20 ^2
   - 62 x20 * x21 - 72 x20 * x24 + 44 x20 * x28 + 72 x20 * x29
   + 60 x20 * x38 - 36 x20 * x40 + 58 x20 * x44 + 76 x20 * x45
   - 24 x20 * x46 + 78 x20 * x47 - 86 x20 * x56 + 50 x20 * x62
   + 84 x20 * x65 + 8 x20 * x69 - 10 x20 * x72 + 98 x20 * x74
   - 84 x20 * x75 - 6 x20 * x76 + 50 x20 * x78 + 62 x20 * x86
   + 62 x20 * x87 - 72 x20 * x88 + 10 x21 ^2 - 22 x21 * x23 + 32 x21 * x24
   + 62 x21 * x26 - 30 x21 * x29 + 52 x21 * x31 - 54 x21 * x32
   + 90 x21 * x36 + 14 x21 * x38 - 86 x21 * x40 - 4 x21 * x41
   - 62 x21 * x42 + 76 x21 * x43 + 26 x21 * x46 - 84 x21 * x47
   - 40 x21 * x48 - 34 x21 * x49 - 68 x21 * x50 + 68 x21 * x52
   + 32 x21 * x54 - 20 x21 * x56 + 46 x21 * x57 - 42 x21 * x58
   - 70 x21 * x59 - 60 x21 * x60 - 84 x21 * x61 - 30 x21 * x75
   - 42 x21 * x76 + 16 x21 * x77 - 38 x21 * x78 + 74 x21 * x79
   - 96 x21 * x80 - 22 x21 * x81 + 16 x21 * x82 - 12 x21 * x84
   + 92 x21 * x87 + 48 x21 * x89 + 48 x22 * x23 + 86 x22 * x26
   - 22 x22 * x28 - 82 x22 * x30 + 98 x22 * x32 + 96 x22 * x34
   - 4 x22 * x35 - 26 x22 * x39 + 24 x22 * x43 + 4 x22 * x46 + 40 x22 * x52
   - 44 x22 * x56 - 44 x22 * x58 - 24 x22 * x68 - 74 x22 * x69
   - 46 x22 * x71 - 88 x22 * x72 - 32 x22 * x73 + 50 x22 * x76
   - 42 x22 * x77 - 34 x22 * x80 - 98 x22 * x82 - 60 x22 * x83
   - 8 x22 * x84 + 48 x22 * x87 - 56 x22 * x89 + 14 x23 ^2 + 54 x23 * x24
   + 6 x23 * x28 + 24 x23 * x29 + 28 x23 * x30 + 38 x23 * x31
   - 76 x23 * x33 - 82 x23 * x35 - 12 x23 * x36 - 30 x23 * x38
   - 20 x23 * x39 - 32 x23 * x41 - 32 x23 * x42 + 24 x23 * x45
   - 4 x23 * x46 - 42 x23 * x48 - 58 x23 * x49 - 58 x23 * x50
   + 88 x23 * x51 + 46 x23 * x53 - 66 x23 * x55 - 2 x23 * x61
   - 10 x23 * x63 + 32 x23 * x64 - 4 x23 * x65 - 16 x23 * x68
   + 28 x23 * x70 - 4 x23 * x73 - 8 x23 * x75 - 82 x23 * x79 + 90 x23 * x80
   - 84 x23 * x84 - 4 x23 * x85 - 94 x24 * x27 - 96 x24 * x29
   - 12 x24 * x34 - 56 x24 * x40 - 88 x24 * x43 - 74 x24 * x45
   + 40 x24 * x48 - 10 x24 * x51 - 32 x24 * x52 - 8 x24 * x54 - 2 x24 * x58
   + 52 x24 * x59 + 88 x24 * x61 + 90 x24 * x63 - 12 x24 * x68
   - 50 x24 * x69 + 90 x24 * x71 - 42 x24 * x72 + 4 x24 * x74
   - 78 x24 * x75 + 38 x24 * x77 + 8 x24 * x79 + 10 x24 * x80
   + 28 x24 * x81 - 90 x24 * x85 + 8 x25 ^2 - 94 x25 * x27 - 72 x25 * x31
   + 10 x25 * x34 + 86 x25 * x39 - 62 x25 * x41 + 4 x25 * x44
   - 22 x25 * x45 - 36 x25 * x46 - 22 x25 * x47 + 22 x25 * x48
   - 24 x25 * x53 - 12 x25 * x56 - 24 x25 * x57 + 90 x25 * x58
   + 88 x25 * x59 - 42 x25 * x60 - 96 x25 * x61 + 74 x25 * x62
   - 82 x25 * x63 - 4 x25 * x64 - 6 x25 * x65 + 94 x25 * x66 + 90 x25 * x68
   + 84 x25 * x69 + 48 x25 * x71 + 62 x25 * x76 + 82 x25 * x78
   + 86 x25 * x79 - 8 x25 * x82 + 74 x25 * x89 + 92 x26 * x28 - 8 x26 * x30
   + 40 x26 * x35 - 84 x26 * x37 - 70 x26 * x38 - 12 x26 * x40
   + 84 x26 * x41 + 78 x26 * x43 - 92 x26 * x44 + 56 x26 * x47
   + 90 x26 * x49 + 40 x26 * x52 - 14 x26 * x53 + 56 x26 * x54
   - 28 x26 * x58 - 38 x26 * x59 - 62 x26 * x60 + 10 x26 * x63
   - 4 x26 * x64 - 80 x26 * x65 + 50 x26 * x68 + 8 x26 * x69 + 88 x26 * x70
   + 82 x26 * x73 + 22 x26 * x75 + 28 x26 * x77 + 60 x26 * x78
   + 78 x26 * x79 + 98 x26 * x80 - 38 x26 * x81 - 6 x26 * x82
   - 38 x26 * x85 + 54 x26 * x87 + 36 x26 * x88 + 12 x27 * x34
   - 84 x27 * x35 + 68 x27 * x36 + 64 x27 * x44 + 16 x27 * x45
   + 24 x27 * x46 - 30 x27 * x47 + 22 x27 * x48 + 34 x27 * x49
   - 66 x27 * x51 - 60 x27 * x52 + 26 x27 * x54 - 30 x27 * x57
   + 46 x27 * x58 + 34 x27 * x61 - 46 x27 * x65 + 14 x27 * x73
   - 92 x27 * x74 + 70 x27 * x75 - 86 x27 * x77 + 98 x27 * x82
   - 66 x27 * x83 + 34 x27 * x84 + 60 x27 * x89 + 34 x28 ^2 + 38 x28 * x30
   + 76 x28 * x31 - 72 x28 * x35 + 98 x28 * x36 - 70 x28 * x37
   + 50 x28 * x39 + 60 x28 * x41 - 78 x28 * x42 - 96 x28 * x43
   + 88 x28 * x45 + 6 x28 * x46 + 20 x28 * x47 - 36 x28 * x48
   - 20 x28 * x49 - 56 x28 * x51 - 38 x28 * x52 + 92 x28 * x56
   - 64 x28 * x69 + 36 x28 * x71 - 92 x28 * x72 - 78 x28 * x74
   + 14 x28 * x80 + 70 x28 * x82 + 20 x28 * x84 - 50 x28 * x87
   - 86 x28 * x88 - 36 x29 ^2 + 50 x29 * x30 + 44 x29 * x31 + 80 x29 * x33
   - 78 x29 * x35 + 88 x29 * x36 - 94 x29 * x38 - 96 x29 * x40
   + 30 x29 * x42 + 46 x29 * x46 + 88 x29 * x49 - 24 x29 * x51
   - 24 x29 * x52 + 52 x29 * x53 - 28 x29 * x55 - 48 x29 * x56
   + 78 x29 * x57 + 90 x29 * x58 + 36 x29 * x59 + 56 x29 * x60
   - 54 x29 * x61 + 58 x29 * x68 + 12 x29 * x70 + 34 x29 * x72
   + 96 x29 * x74 - 24 x29 * x75 + 88 x29 * x80 - 86 x29 * x82
   + 66 x29 * x83 + 64 x29 * x85 + 80 x29 * x86 + 14 x29 * x87
   + 78 x30 * x33 + 78 x30 * x35 + 64 x30 * x36 + 58 x30 * x39
   - 34 x30 * x44 + 32 x30 * x46 + 10 x30 * x52 - 38 x30 * x55
   + 70 x30 * x63 - 24 x30 * x64 + 80 x30 * x65 + 62 x30 * x66
   - 74 x30 * x67 - 86 x30 * x69 - 38 x30 * x72 + 92 x30 * x73
   + 32 x30 * x76 + 36 x30 * x78 - 48 x30 * x79 - 80 x30 * x81
   + 54 x30 * x82 - 92 x30 * x83 + 92 x30 * x84 + 56 x30 * x89
   - 62 x31 * x33 - 72 x31 * x36 + 98 x31 * x37 - 82 x31 * x40
   - 48 x31 * x42 - 98 x31 * x50 - 74 x31 * x54 - 46 x31 * x55
   - 26 x31 * x59 + 42 x31 * x60 - 96 x31 * x61 + 98 x31 * x62
   + 64 x31 * x64 + 66 x31 * x65 + 74 x31 * x66 + 38 x31 * x69
   + 64 x31 * x70 - 14 x31 * x71 + 50 x31 * x72 + 64 x31 * x73
   - 22 x31 * x76 - 58 x31 * x80 + 38 x31 * x81 + 90 x31 * x82
   - 28 x31 * x84 + 34 x31 * x85 + 86 x31 * x86 - 19 x32 ^2 + 68 x32 * x35
   + 62 x32 * x36 - 74 x32 * x37 + 46 x32 * x38 + 44 x32 * x40
   + 50 x32 * x42 - 40 x32 * x43 - 96 x32 * x44 - 62 x32 * x47
   - 30 x32 * x48 + 86 x32 * x51 - 80 x32 * x54 + 28 x32 * x55
   - 32 x32 * x56 - 30 x32 * x61 - 42 x32 * x64 + 66 x32 * x68
   - 26 x32 * x70 - 54 x32 * x72 + 92 x32 * x73 - 70 x32 * x74
   - 16 x32 * x79 - 86 x32 * x80 - 32 x32 * x84 + 88 x32 * x87
   + 2 x32 * x88 - 2 x33 * x34 - 96 x33 * x39 - 88 x33 * x40 + 26 x33 * x41
   - 44 x33 * x42 - 30 x33 * x43 - 2 x33 * x44 - 76 x33 * x45
   - 70 x33 * x49 - 4 x33 * x50 - 60 x33 * x52 + 78 x33 * x55
   + 88 x33 * x56 + 32 x33 * x57 - 44 x33 * x60 - 96 x33 * x65
   - 58 x33 * x66 + 22 x33 * x67 - 76 x33 * x68 - 62 x33 * x69
   - 90 x33 * x70 - 46 x33 * x73 - 42 x33 * x74 + 44 x33 * x75
   + 14 x33 * x76 - 82 x33 * x80 - 16 x33 * x81 - 20 x33 * x82
   + 74 x33 * x86 - 48 x33 * x87 - 66 x33 * x88 - 29 x34 ^2 - 72 x34 * x35
   + 66 x34 * x36 - 52 x34 * x39 + 62 x34 * x40 + 4 x34 * x43
   - 22 x34 * x45 + 64 x34 * x46 - 68 x34 * x47 + 64 x34 * x49
   + 84 x34 * x50 - 10 x34 * x51 + 68 x34 * x52 + 28 x34 * x58
   + 58 x34 * x59 + 62 x34 * x63 - 28 x34 * x64 - 86 x34 * x68
   - 74 x34 * x70 + 30 x34 * x71 + 54 x34 * x72 - 88 x34 * x73
   - 46 x34 * x74 + 2 x34 * x75 - 86 x34 * x81 - 92 x34 * x82
   - 16 x34 * x83 - 64 x34 * x86 - 24 x34 * x88 - 98 x34 * x89
   - 16 x35 * x36 - 38 x35 * x38 + 50 x35 * x40 + 80 x35 * x42
   + 84 x35 * x44 - 68 x35 * x46 + 12 x35 * x52 + 48 x35 * x55
   + 60 x35 * x57 - 48 x35 * x58 - 32 x35 * x59 + 36 x35 * x63
   - 4 x35 * x65 + 50 x35 * x66 - 18 x35 * x68 - 8 x35 * x70 - 32 x35 * x77
   + 58 x35 * x81 - 96 x35 * x82 + 18 x35 * x84 + 80 x35 * x86
   + 54 x35 * x88 - 78 x36 * x37 + 64 x36 * x38 - 78 x36 * x39
   - 42 x36 * x44 + 10 x36 * x46 - 80 x36 * x47 + 44 x36 * x49
   + 54 x36 * x50 + 56 x36 * x53 - 66 x36 * x56 - 96 x36 * x57
   + 36 x36 * x60 + 52 x36 * x61 - 4 x36 * x64 + 98 x36 * x65
   - 36 x36 * x66 - 60 x36 * x67 - 44 x36 * x68 - 14 x36 * x69
   + 10 x36 * x70 + 80 x36 * x73 + 48 x36 * x75 - 54 x36 * x77
   - 52 x36 * x78 - 56 x36 * x82 - 4 x36 * x83 + 18 x36 * x84
   + 28 x36 * x85 + 54 x36 * x86 + 52 x36 * x88 + 48 x37 ^2 + 60 x37 * x41
   + 30 x37 * x42 - 16 x37 * x47 + 76 x37 * x49 + 68 x37 * x51
   + 4 x37 * x52 + 82 x37 * x54 - 30 x37 * x56 + 42 x37 * x58
   + 34 x37 * x62 + 70 x37 * x67 - 44 x37 * x68 + 58 x37 * x70
   + 42 x37 * x71 + 78 x37 * x73 - 94 x37 * x75 + 26 x37 * x78
   - 22 x37 * x79 - 44 x37 * x82 - 78 x37 * x85 - 52 x37 * x86
   + 98 x37 * x87 + 76 x37 * x88 + 70 x38 * x40 + 98 x38 * x41
   + 24 x38 * x42 + 4 x38 * x46 + 92 x38 * x48 + 78 x38 * x51
   - 28 x38 * x53 + 56 x38 * x54 - 28 x38 * x55 - 30 x38 * x56
   - 58 x38 * x57 + 64 x38 * x58 + 30 x38 * x60 + 28 x38 * x61
   + 80 x38 * x63 + 96 x38 * x64 + 14 x38 * x67 - 46 x38 * x68
   + 76 x38 * x70 + 94 x38 * x71 + 16 x38 * x72 - 60 x38 * x74
   - 28 x38 * x75 + 12 x38 * x76 + 12 x38 * x77 - 84 x38 * x78
   - 76 x38 * x79 - 88 x38 * x81 + 34 x38 * x83 - 42 x38 * x84
   - 16 x38 * x86 + 94 x38 * x87 - 50 x38 * x88 + 20 x39 ^2 - 28 x39 * x40
   + 66 x39 * x45 + 98 x39 * x47 - 70 x39 * x51 + 66 x39 * x53
   - 62 x39 * x55 - 6 x39 * x56 + 44 x39 * x58 + 64 x39 * x60
   - 28 x39 * x61 - 18 x39 * x66 + 90 x39 * x67 + 52 x39 * x72
   + 98 x39 * x75 + 76 x39 * x80 + 44 x39 * x81 + 26 x39 * x85
   + 40 x39 * x87 - 28 x39 * x88 - 84 x39 * x89 + 32 x40 * x42
   - 64 x40 * x45 - 76 x40 * x46 - 52 x40 * x47 - 38 x40 * x49
   + 72 x40 * x51 + 78 x40 * x53 - 64 x40 * x54 + 12 x40 * x55
   + 54 x40 * x56 + 6 x40 * x58 + 58 x40 * x60 + 44 x40 * x62
   - 96 x40 * x63 + 74 x40 * x64 + 38 x40 * x65 + 52 x40 * x71
   - 90 x40 * x72 - 2 x40 * x73 - 22 x40 * x75 - 18 x40 * x76
   - 58 x40 * x77 - 90 x40 * x80 - 68 x40 * x82 - 34 x40 * x84
   - 98 x40 * x85 + 78 x40 * x87 + 2 x41 * x42 - 22 x41 * x44
   - 94 x41 * x45 + 88 x41 * x46 + 56 x41 * x50 - 4 x41 * x51
   + 82 x41 * x53 - 66 x41 * x54 - 44 x41 * x55 + 20 x41 * x60
   + 6 x41 * x62 - 66 x41 * x64 - 28 x41 * x66 - 28 x41 * x67
   - 14 x41 * x68 + 48 x41 * x70 + 58 x41 * x71 + 62 x41 * x73
   + 64 x41 * x75 - 42 x41 * x77 - 62 x41 * x79 + 70 x41 * x81
   + 96 x41 * x82 + 2 x41 * x83 + 66 x41 * x84 + 30 x41 * x86
   + 62 x42 * x43 + 8 x42 * x44 + 62 x42 * x45 + 44 x42 * x46
   + 64 x42 * x48 + 48 x42 * x50 - 44 x42 * x52 + 88 x42 * x56
   - 70 x42 * x57 - 94 x42 * x58 - 30 x42 * x59 - 72 x42 * x61
   + 36 x42 * x62 + 28 x42 * x63 + 68 x42 * x66 + 32 x42 * x70
   + 98 x42 * x71 + 42 x42 * x72 - 36 x42 * x73 - 56 x42 * x81
   + 84 x42 * x82 - 28 x42 * x83 - 46 x42 * x85 - 48 x42 * x86
   - 90 x42 * x87 + 43 x43 ^2 - 20 x43 * x45 + 24 x43 * x46 + 84 x43 * x47
   + 12 x43 * x49 - 30 x43 * x50 + 80 x43 * x51 + 72 x43 * x54
   + 26 x43 * x55 + 26 x43 * x57 - 50 x43 * x58 + 74 x43 * x59
   + 32 x43 * x63 - 34 x43 * x64 + 62 x43 * x65 + 72 x43 * x67
   + 92 x43 * x68 - 44 x43 * x69 - 72 x43 * x70 - 76 x43 * x72
   - 74 x43 * x74 + 14 x43 * x75 + 34 x43 * x77 - 12 x43 * x80
   - 18 x43 * x81 + 44 x43 * x83 + 60 x43 * x85 + 98 x43 * x87
   - 52 x44 * x49 + 92 x44 * x51 + 70 x44 * x53 - 10 x44 * x54
   + 98 x44 * x55 - 24 x44 * x64 + 80 x44 * x65 - 32 x44 * x66
   - 40 x44 * x70 + 20 x44 * x71 - 66 x44 * x72 - 92 x44 * x74
   - 76 x44 * x77 + 42 x44 * x78 - 8 x44 * x80 - 40 x44 * x81
   - 20 x44 * x82 + 64 x44 * x83 - 14 x44 * x85 + 66 x44 * x86
   - 72 x44 * x88 + 76 x45 * x46 + 4 x45 * x47 - 12 x45 * x48
   + 22 x45 * x51 - 88 x45 * x52 + 54 x45 * x53 - 92 x45 * x55
   - 98 x45 * x57 - 14 x45 * x59 + 88 x45 * x60 + 52 x45 * x62
   + 38 x45 * x64 + 20 x45 * x65 - 22 x45 * x67 + 98 x45 * x70
   - 36 x45 * x71 - 16 x45 * x74 + 18 x45 * x76 - 4 x45 * x78
   - 46 x45 * x86 + 32 x45 * x87 - 38 x45 * x89 + 22 x46 ^2 + 86 x46 * x48
   + 18 x46 * x51 + 84 x46 * x52 + 36 x46 * x53 + 72 x46 * x55
   + 58 x46 * x56 - 42 x46 * x58 + 86 x46 * x59 + 24 x46 * x63
   - 34 x46 * x71 + 6 x46 * x72 + 4 x46 * x75 + 16 x46 * x77 + 4 x46 * x78
   - 58 x46 * x79 - 30 x46 * x83 + 40 x46 * x86 - 6 x46 * x88
   + 52 x46 * x89 - 56 x47 * x48 + 64 x47 * x49 + 78 x47 * x51
   + 8 x47 * x53 - 14 x47 * x55 + 92 x47 * x56 + 72 x47 * x58 + 4 x47 * x59
   + 44 x47 * x60 - 6 x47 * x61 - 96 x47 * x64 - 62 x47 * x68
   + 34 x47 * x72 + 40 x47 * x76 + 22 x47 * x78 + 24 x47 * x79
   - 34 x47 * x81 - 58 x47 * x82 + 42 x47 * x84 + 8 x47 * x85
   - 32 x47 * x86 - 54 x47 * x88 - 94 x47 * x89 + 19 x48 ^2 - 24 x48 * x52
   + 66 x48 * x59 - 20 x48 * x60 - 40 x48 * x61 - 82 x48 * x68
   + 30 x48 * x70 - 44 x48 * x71 - 34 x48 * x73 - 56 x48 * x74
   + 84 x48 * x75 - 46 x48 * x78 - 42 x48 * x80 + 34 x48 * x82
   + 24 x48 * x86 + 86 x48 * x87 + 24 x48 * x88 + 84 x49 * x53
   + 68 x49 * x54 + 52 x49 * x60 - 82 x49 * x62 - 68 x49 * x63
   - 28 x49 * x65 - 28 x49 * x66 + 96 x49 * x69 + 24 x49 * x71
   + 2 x49 * x74 - 90 x49 * x75 + 62 x49 * x76 + 62 x49 * x78
   + 88 x49 * x80 + 90 x49 * x81 + 86 x49 * x82 + 86 x49 * x88
   + 94 x49 * x89 - 42 x50 ^2 - 8 x50 * x54 + 56 x50 * x55 + 18 x50 * x57
   - 18 x50 * x59 - 18 x50 * x62 - 2 x50 * x64 + 92 x50 * x67
   - 62 x50 * x69 - 48 x50 * x70 - 30 x50 * x71 + 52 x50 * x72
   + 52 x50 * x73 + 14 x50 * x76 - 80 x50 * x79 - 26 x50 * x80
   - 46 x50 * x82 - 36 x50 * x83 - 74 x50 * x84 + 46 x50 * x86
   - 18 x50 * x88 + 52 x50 * x89 - 4 x51 ^2 + 74 x51 * x52 + 16 x51 * x54
   - 86 x51 * x55 + 46 x51 * x60 - 20 x51 * x62 - 84 x51 * x63
   + 76 x51 * x66 + 82 x51 * x67 - 30 x51 * x69 - 12 x51 * x70
   - 44 x51 * x71 + 46 x51 * x73 - 20 x51 * x74 + 44 x51 * x75
   + 80 x51 * x80 - 20 x51 * x84 + 50 x51 * x86 + 24 x52 * x58
   - 26 x52 * x61 - 62 x52 * x64 - 66 x52 * x71 - 80 x52 * x74
   + 44 x52 * x75 + 40 x52 * x77 + 96 x52 * x80 - 62 x52 * x81
   - 48 x52 * x82 + 60 x52 * x83 + 30 x52 * x84 + 4 x52 * x85
   - 32 x52 * x87 - 84 x52 * x89 + 6 x53 ^2 + 66 x53 * x54 + 82 x53 * x57
   + 34 x53 * x58 - 6 x53 * x60 + 80 x53 * x61 + 62 x53 * x64
   - 52 x53 * x65 - 64 x53 * x66 - 44 x53 * x71 - 44 x53 * x72
   - 48 x53 * x73 - 80 x53 * x75 - 16 x53 * x76 + 92 x53 * x77
   + 24 x53 * x78 + 76 x53 * x81 - 10 x53 * x82 + 16 x53 * x84
   - 64 x53 * x85 - 82 x53 * x87 + 66 x53 * x88 + 4 x54 ^2 + 52 x54 * x55
   + 68 x54 * x57 + 54 x54 * x59 - 44 x54 * x63 + 12 x54 * x64
   - 26 x54 * x65 - 2 x54 * x67 - 86 x54 * x68 - 72 x54 * x69
   - 20 x54 * x71 - 96 x54 * x72 + 36 x54 * x74 - 86 x54 * x76
   + 4 x54 * x78 + 88 x54 * x80 + 30 x54 * x83 - 6 x54 * x84 + 88 x54 * x85
   - 46 x54 * x86 + 58 x54 * x87 + 2 x54 * x88 - 88 x54 * x89 + 46 x55 ^2
   - 24 x55 * x56 - 54 x55 * x57 - 90 x55 * x58 + 66 x55 * x60
   + 56 x55 * x61 - 6 x55 * x62 - 66 x55 * x63 + 36 x55 * x66
   - 24 x55 * x67 - 72 x55 * x70 + 48 x55 * x72 + 86 x55 * x73
   + 64 x55 * x74 + 56 x55 * x76 + 38 x55 * x77 + 76 x55 * x78
   + 12 x55 * x79 + 40 x55 * x80 + 47 x56 ^2 + 58 x56 * x57 + 58 x56 * x58
   - 82 x56 * x60 - 62 x56 * x61 - 40 x56 * x63 + 86 x56 * x65
   - 28 x56 * x67 - 36 x56 * x68 - 34 x56 * x69 - 64 x56 * x75
   + 70 x56 * x76 + 52 x56 * x80 - 60 x56 * x81 - 20 x56 * x83
   - 34 x56 * x84 + 52 x56 * x87 + 26 x56 * x88 - 52 x57 * x59
   + 48 x57 * x62 + 6 x57 * x66 - 50 x57 * x68 - 40 x57 * x71 - 6 x57 * x72
   + 66 x57 * x76 + 4 x57 * x77 - 48 x57 * x78 - 8 x57 * x80 - 14 x57 * x81
   - 74 x57 * x84 + 10 x57 * x85 - 20 x58 * x62 - 38 x58 * x64
   + 44 x58 * x66 - 64 x58 * x67 - 84 x58 * x69 - 62 x58 * x72
   + 88 x58 * x75 + 18 x58 * x78 + 60 x58 * x79 - 42 x58 * x81
   + 68 x58 * x82 - 98 x58 * x86 - 4 x58 * x87 - 78 x59 * x60
   - 86 x59 * x62 + 66 x59 * x63 + 88 x59 * x64 + 30 x59 * x65
   + 12 x59 * x67 - 16 x59 * x70 + 20 x59 * x71 - 82 x59 * x72
   + 62 x59 * x73 - 4 x59 * x78 - 92 x59 * x79 + 22 x59 * x85
   + 20 x59 * x86 + 6 x59 * x89 - 12 x60 ^2 + 70 x60 * x62 - 92 x60 * x63
   - 40 x60 * x64 - 30 x60 * x66 - 10 x60 * x69 + 36 x60 * x70
   + 82 x60 * x74 - 6 x60 * x75 - 96 x60 * x77 - 38 x60 * x79
   - 34 x60 * x81 + 32 x60 * x82 + 20 x60 * x84 + 96 x60 * x85 - 38 x61 ^2
   - 26 x61 * x62 + 64 x61 * x63 + 68 x61 * x64 + 86 x61 * x67
   + 76 x61 * x75 + 56 x61 * x76 - 56 x61 * x78 - 50 x61 * x82
   - 88 x61 * x85 - 76 x61 * x86 + 78 x61 * x87 - 34 x61 * x88 - 34 x62 ^2
   + 56 x62 * x65 - 42 x62 * x66 - 92 x62 * x67 + 16 x62 * x68
   - 50 x62 * x69 - 40 x62 * x71 - 96 x62 * x74 - 44 x62 * x76
   + 46 x62 * x77 - 46 x62 * x79 + 82 x62 * x81 + 18 x62 * x86
   - 44 x62 * x87 + 52 x62 * x88 - 54 x62 * x89 + 26 x63 * x65
   - 10 x63 * x66 + 60 x63 * x67 - 64 x63 * x71 - 94 x63 * x74
   - 42 x63 * x75 + 50 x63 * x79 - 76 x63 * x81 - 86 x63 * x82
   - 28 x63 * x84 + 94 x63 * x88 + 56 x64 * x65 - 20 x64 * x67
   - 28 x64 * x69 - 50 x64 * x70 - 2 x64 * x71 + 68 x64 * x72
   + 26 x64 * x76 + 16 x64 * x78 + 52 x64 * x79 + 42 x64 * x83
   - 74 x64 * x84 + 24 x64 * x85 - 30 x64 * x86 + 2 x64 * x89 + 43 x65 ^2
   + 54 x65 * x67 + 64 x65 * x70 - 52 x65 * x71 + 44 x65 * x72
   - 98 x65 * x73 - 16 x65 * x75 - 42 x65 * x77 + 20 x65 * x79
   - 48 x65 * x80 + 26 x65 * x82 - 70 x65 * x84 - 78 x65 * x85
   + 82 x65 * x86 - 32 x65 * x87 + 52 x65 * x88 - 54 x65 * x89 - 32 x66 ^2
   + 4 x66 * x70 - 14 x66 * x72 + 84 x66 * x73 + 48 x66 * x75
   - 74 x66 * x76 - 8 x66 * x77 - 78 x66 * x78 - 90 x66 * x79
   - 54 x66 * x80 - 96 x66 * x81 - 82 x66 * x82 + 92 x66 * x84
   - 78 x66 * x86 - 8 x66 * x88 - 14 x67 * x68 - 18 x67 * x71
   - 48 x67 * x76 - 46 x67 * x77 - 36 x67 * x78 - 26 x67 * x82
   - 26 x67 * x83 - 6 x67 * x85 - 46 x67 * x87 - 10 x67 * x88
   - 12 x68 * x69 + 10 x68 * x72 - 16 x68 * x77 + 48 x68 * x78
   - 8 x68 * x82 - 16 x68 * x85 + 78 x68 * x86 + 96 x68 * x88 - 30 x69 ^2
   - 26 x69 * x71 - 82 x69 * x72 - 90 x69 * x73 + 90 x69 * x75
   + 92 x69 * x76 + 18 x69 * x78 - 60 x69 * x79 + 28 x69 * x82
   + 12 x69 * x83 - 42 x69 * x84 + 26 x69 * x86 - 30 x69 * x89 + 45 x70 ^2
   + 74 x70 * x71 - 54 x70 * x73 + 44 x70 * x74 + 76 x70 * x75
   + 48 x70 * x77 + 6 x70 * x79 - 46 x70 * x80 + 40 x70 * x81
   - 98 x70 * x82 - 94 x70 * x84 - 44 x70 * x85 + 64 x70 * x87
   + 40 x70 * x88 + 38 x70 * x89 - 38 x71 ^2 - 44 x71 * x72 + 40 x71 * x73
   - 66 x71 * x74 + 86 x71 * x75 + 70 x71 * x78 - 76 x71 * x79
   + 72 x71 * x82 - 14 x71 * x83 - 74 x71 * x85 + 46 x71 * x89
   + 62 x72 * x73 - 44 x72 * x74 - 58 x72 * x76 - 56 x72 * x78
   - 32 x72 * x79 + 46 x72 * x80 - 16 x72 * x82 - 30 x72 * x83
   - 76 x72 * x84 + 28 x72 * x88 + 94 x72 * x89 + 88 x73 * x74
   + 46 x73 * x76 + 66 x73 * x78 - 8 x73 * x79 - 94 x73 * x80
   + 80 x73 * x82 + 94 x73 * x83 - 86 x73 * x85 + 78 x73 * x86
   - 68 x73 * x87 - 23 x74 ^2 - 12 x74 * x75 + 46 x74 * x77 - 50 x74 * x78
   + 30 x74 * x80 - 46 x74 * x81 + 36 x74 * x83 + 22 x74 * x85
   - 54 x74 * x86 + 2 x74 * x87 - 20 x74 * x89 - 66 x75 * x77
   + 92 x75 * x82 - 30 x75 * x86 - 56 x75 * x87 - 25 x76 ^2 + 36 x76 * x78
   - 52 x76 * x82 - 6 x76 * x83 + 24 x76 * x88 - 54 x76 * x89
   + 26 x77 * x80 - 40 x77 * x81 - 40 x77 * x83 + 34 x77 * x85
   + 48 x77 * x86 - 10 x77 * x87 + 62 x77 * x88 - 7 x78 ^2 - 74 x78 * x79
   + 74 x78 * x82 - 64 x78 * x85 - 28 x78 * x88 - 72 x79 * x80
   + 58 x79 * x82 + 86 x79 * x86 - 90 x79 * x88 + 23 x80 ^2 - 14 x80 * x81
   + 44 x80 * x82 + 94 x80 * x83 - 24 x80 * x86 + 86 x80 * x87
   - 94 x80 * x88 + 24 x81 ^2 + 42 x81 * x82 - 6 x81 * x83 + 36 x81 * x84
   - 56 x81 * x85 + 94 x81 * x87 + 22 x82 * x84 - 32 x82 * x89
   - 22 x83 * x88 - 98 x84 * x85 - 28 x84 * x88 + 54 x85 * x86
   - 4 x85 * x87 - 10 x85 * x88 - 60 x85 * x89 + 96 x86 * x87
   - 18 x86 * x88 + 40 x87 ^2 + 82 x87 * x88 - 27 x88 ^2 - 68 x88 * x89
   - 21 x89 ^2 ] / 2 
Subject To
Bounds
 x0 <= 1
 x1 <= 1
 x2 <= 1
 x3 <= 1
 x4 <= 1
 x5 <= 1
 x6 <= 1
 x7 <= 1
 x8 <= 1
 x9 <= 1
 x10 <= 1
 x11 <= 1
 x12 <= 1
 x13 <= 1
 x14 <= 1
 x15 <= 1
 x16 <= 1
 x17 <= 1
 x18 <= 1
 x19 <= 1
 x20 <= 1
 x21 <= 1
 x22 <= 1
 x23 <= 1
 x24 <= 1
 x25 <= 1
 x26 <= 1
 x27 <= 1
 x28 <= 1
 x29 <= 1
 x30 <= 1
 x31 <= 1
 x32 <= 1
 x33 <= 1
 x34 <= 1
 x35 <= 1
 x36 <= 1
 x37 <= 1
 x38 <= 1
 x39 <= 1
 x40 <= 1
 x41 <= 1
 x42 <= 1
 x43 <= 1
 x44 <= 1
 x45 <= 1
 x46 <= 1
 x47 <= 1
 x48 <= 1
 x49 <= 1
 x50 <= 1
 x51 <= 1
 x52 <= 1
 x53 <= 1
 x54 <= 1
 x55 <= 1
 x56 <= 1
 x57 <= 1
 x58 <= 1
 x59 <= 1
 x60 <= 1
 x61 <= 1
 x62 <= 1
 x63 <= 1
 x64 <= 1
 x65 <= 1
 x66 <= 1
 x67 <= 1
 x68 <= 1
 x69 <= 1
 x70 <= 1
 x71 <= 1
 x72 <= 1
 x73 <= 1
 x74 <= 1
 x75 <= 1
 x76 <= 1
 x77 <= 1
 x78 <= 1
 x79 <= 1
 x80 <= 1
 x81 <= 1
 x82 <= 1
 x83 <= 1
 x84 <= 1
 x85 <= 1
 x86 <= 1
 x87 <= 1
 x88 <= 1
 x89 <= 1
End
